Linux optc-04-06 4.15.0-88-generic #88-Ubuntu SMP Tue Feb 11 20:11:34 UTC 2020 x86_64 x86_64 x86_64 GNU/Linux

top - 10:59:15 up 2 days, 21:34,  0 users,  load average: 0,04, 0,24, 0,57
Tasks: 466 gesamt,   1 laufend, 235 schlafend,   0 gestoppt,   0 Zombie
%CPU(s): 15,4 be,  3,2 sy,  0,0 ni, 81,3 un,  0,0 wa,  0,0 hi,  0,0 si,  0,0 st
KiB Spch : 65916192 gesamt, 62593208 frei,   719388 belegt,  2603596 Puff/Cache
KiB Swap:  8388604 gesamt,  8388604 frei,        0 belegt. 64620212 verfü Spch 

  PID USER      PR  NI    VIRT    RES    SHR S  %CPU %MEM     ZEIT+ BEFEHL
  940 root      20   0       0      0      0 S   6,2  0,0   0:11.02 xfsaild/sd+
46157 bzfhende  20   0   52808   4344   3396 R   6,2  0,0   0:00.03 top
    1 root      20   0  233688   9312   6772 S   0,0  0,0   0:17.72 systemd
    2 root      20   0       0      0      0 S   0,0  0,0   0:00.32 kthreadd
    4 root       0 -20       0      0      0 I   0,0  0,0   0:00.00 kworker/0:+
    5 root      20   0       0      0      0 I   0,0  0,0   0:43.29 kworker/u9+
    7 root       0 -20       0      0      0 I   0,0  0,0   0:00.00 mm_percpu_+
    8 root      20   0       0      0      0 S   0,0  0,0   0:00.37 ksoftirqd/0

hard time limit: 00-04:10:00
hard mem limit: 38600

SLURM jobID: 6405224

@01 /nfs/OPTI/bzfhende/instances//./Pierre_Le_Bodic/instances/chromaticindex1024-0.mps.gz ===========
-----------------------------
So 8. Mär 10:59:15 CET 2020
-----------------------------
@03 1583661555
@05 7200
SCIP version 7.0.0 [precision: 8 byte] [memory: block] [mode: optimized] [LP solver: CPLEX 12.10.0.0] [GitHash: 297532de76]
Copyright (C) 2002-2020 Konrad-Zuse-Zentrum fuer Informationstechnik Berlin (ZIB)

External codes: 
  Readline 7.0         GNU library for command line editing (gnu.org/s/readline)
  CPLEX 12.10.0.0      Linear Programming Solver developed by IBM (www.cplex.com)
  CppAD 20180000.0     Algorithmic Differentiation of C++ algorithms developed by B. Bell (www.coin-or.org/CppAD)
  ZLIB 1.2.11          General purpose compression library by J. Gailly and M. Adler (zlib.net)
  GMP 6.1.2            GNU Multiple Precision Arithmetic Library developed by T. Granlund (gmplib.org)
  bliss 0.73p          Computing Graph Automorphism Groups by T. Junttila and P. Kaski (http://www.tcs.hut.fi/Software/bliss/)

user parameter file <scip.set> not found - using default parameters

SCIP> 
SCIP> set load /nfs/OPTI/bzfhende/scip-opti/check/../settings/periodic_report.sett
loaded parameter file </nfs/OPTI/bzfhende/scip-opti/check/../settings/periodic_report.set>
SCIP> set limits time 7200
limits/time = 7200
SCIP> set limits nodes 2100000000
limits/nodes = 2100000000
SCIP> set limits memory 35000
limits/memory = 35000
SCIP> set lp advanced threads 1
lp/threads = 1
SCIP> set timing clocktype 1
timing/clocktype = 1
SCIP> set display freq 10000
display/freq = 10000
SCIP> set memory savefac 1.0
memory/savefac = 1
SCIP> set save /nfs/OPTI/bzfhende/scip-opti/check/treesize.prediction.chromaticinndex/bzfhende.instancegroups_chromaticindex.55_chromaticindex1024-0.scip.M620v2.pperiodic_report.set
saved parameter file </nfs/OPTI/bzfhende/scip-opti/check/treesize.prediction.chromaticindex/bzfhende.instancegroups_chromaticindex.55_chromaticindex1024-0.scip.M620v2.periodic_report.set>
SCIP> read /nfs/OPTI/bzfhende/instances//./Pierre_Le_Bodic/instances/chromaticinddex1024-0.mps.gz

read problem </nfs/OPTI/bzfhende/instances//./Pierre_Le_Bodic/instances/chromaticindex1024-0.mps.gz>
============

original problem has 73728 variables (73728 bin, 0 int, 0 impl, 0 cont) and 67583 constraints
SCIP> display parameters

number of parameters = 2603
non-default parameter settings:
display/freq = 10000
limits/time = 7200
limits/nodes = 2100000000
limits/memory = 35000
lp/threads = 1
memory/savefac = 1
timing/clocktype = 1
estimation/restarts/restartpolicy = n
estimation/restarts/restartlimit = 0
estimation/reportfreq = 100
estimation/treeprofile/enabled = TRUE

SCIP> optimize

presolving:
(round 1, exhaustive) 0 del vars, 0 del conss, 0 add conss, 0 chg bounds, 0 chg sides, 0 chg coeffs, 67583 upgd conss, 0 impls, 67583 clqs
   (2.2s) probing: 51/73728 (0.1%) - 0 fixings, 0 aggregations, 0 implications, 0 bound changes
   (2.2s) probing aborted: 50/50 successive totally useless probings
   (2.3s) symmetry computation started: requiring (bin +, int +, cont +), (fixed: bin -, int -, cont -)
   (4.6s) symmetry computation finished: 4 generators found (max: 868, log10 of symmetry group size: 1.7)
presolving (2 rounds: 2 fast, 2 medium, 2 exhaustive):
 0 deleted vars, 0 deleted constraints, 0 added constraints, 0 tightened bounds, 0 added holes, 0 changed sides, 0 changed coefficients
 0 implications, 67583 cliques
presolved problem has 73728 variables (73728 bin, 0 int, 0 impl, 0 cont) and 67583 constraints
  67583 constraints of type <setppc>
transformed objective value is always integral (scale: 1)
Presolving Time: 4.52

 time | node  | left  |LP iter|LP it/n|mem/heur|mdpt |vars |cons |rows |cuts |sepa|confs|strbr|  dualbound   | primalbound  |  gap   | compl. 
 18.4s|     1 |     0 |     1 |     - |   857M |   0 |  73k|  67k|  67k|   0 |  0 |  50 |   0 | 3.000000e+00 |      --      |    Inf | unknown
  261s|     1 |     0 | 20381 |     - |   915M |   0 |  73k|  67k|  67k|   3 |  1 |  51 |   0 | 3.000000e+00 |      --      |    Inf | unknown
  345s|     1 |     0 | 20881 |     - |   936M |   0 |  73k|  67k|  67k|   6 |  2 |  52 |   0 | 3.000000e+00 |      --      |    Inf | unknown
  429s|     1 |     0 | 21190 |     - |   949M |   0 |  73k|  67k|  67k|   7 |  3 |  53 |   0 | 3.000000e+00 |      --      |    Inf | unknown
  509s|     1 |     0 | 21595 |     - |   965M |   0 |  73k|  67k|  67k|   9 |  4 |  54 |   0 | 3.000000e+00 |      --      |    Inf | unknown
  600s|     1 |     0 | 22143 |     - |   985M |   0 |  73k|  67k|  67k|  11 |  5 |  55 |   0 | 3.000000e+00 |      --      |    Inf | unknown
  682s|     1 |     0 | 22722 |     - |   998M |   0 |  73k|  67k|  67k|  12 |  6 |  56 |   0 | 3.000000e+00 |      --      |    Inf | unknown
  774s|     1 |     0 | 23283 |     - |  1020M |   0 |  73k|  67k|  67k|  14 |  7 |  57 |   0 | 3.000000e+00 |      --      |    Inf | unknown
  856s|     1 |     0 | 23838 |     - |  1023M |   0 |  73k|  67k|  67k|  15 |  8 |  58 |   0 | 3.000000e+00 |      --      |    Inf | unknown
  940s|     1 |     0 | 24538 |     - |  1037M |   0 |  73k|  67k|  67k|  19 |  9 |  59 |   0 | 3.000000e+00 |      --      |    Inf | unknown
 1028s|     1 |     0 | 25729 |     - |  1048M |   0 |  73k|  67k|  67k|  22 | 10 |  60 |   0 | 3.000000e+00 |      --      |    Inf | unknown
 1115s|     1 |     0 | 26440 |     - |  1064M |   0 |  73k|  67k|  67k|  28 | 11 |  61 |   0 | 3.000000e+00 |      --      |    Inf | unknown
d1156s|     1 |     0 | 47530 |     - |conflict|   0 |  73k|  67k|  67k|   0 | 11 |  71 |   0 | 3.000000e+00 | 4.000000e+00 |  33.33%| unknown
 1156s|     1 |     0 | 47530 |     - |  1066M |   0 |  73k|  67k|  67k|  28 | 11 |  71 |   0 | 3.000000e+00 | 4.000000e+00 |  33.33%| unknown
 1239s|     1 |     0 | 48263 |     - |  1078M |   0 |  73k|  67k|  67k|  30 | 12 |  72 |   0 | 3.000000e+00 | 4.000000e+00 |  33.33%| unknown
 time | node  | left  |LP iter|LP it/n|mem/heur|mdpt |vars |cons |rows |cuts |sepa|confs|strbr|  dualbound   | primalbound  |  gap   | compl. 
 1242s|     1 |     0 | 48881 |     - |  1079M |   0 |  73k|  67k|  67k|  32 | 13 |  73 |   0 | 3.000000e+00 | 4.000000e+00 |  33.33%| unknown
 1301s|     1 |     2 | 48881 |     - |  1081M |   0 |  73k|  67k|  67k|  32 | 13 |  74 |  19 | 3.000000e+00 | 4.000000e+00 |  33.33%| unknown
Report 1
Time Elapsed: 1303.38
Estim. Tree Size   :          3
Estimation Tree    : 3 nodes (2 visited, 1 inner, 1 leaves, 1 open), weight: 0.5000 completed 0.5000
Estimations        :      estim      value      trend resolution     smooth
  wbe              :          3          -          -          -          -
  tree-profile     :         -1          -          -          -          -
  gap              :          2    0.75000    0.75000          1          2
  tree-weight      :          3    0.50000    0.50000          1          3
  leaf-frequency   :          2    0.25000    0.75000          1          2
  ssg              :          3    0.50000   -0.50000          1          3
  open-nodes       :          4    1.00000    1.00000          1          4
End of Report 1

Report 2
Time Elapsed: 4917.44
Estim. Tree Size   :        314
Estimation Tree    : 6273 nodes (3263 visited, 3136 inner, 127 leaves, 3010 open), weight: 0.6251 completed 0.5459
Estimations        :      estim      value      trend resolution     smooth
  wbe              :        405          -          -          -          -
  tree-profile     :      61195          -          -          -          -
  gap              :       6526    0.75000    0.00000          1       6507
  tree-weight      :        315    0.62505    0.01219          1       1849
  leaf-frequency   :       6526    0.03877   -0.00009          1       6512
  ssg              :       6526    0.50000   -0.00000          1       6507
  open-nodes       :       6526 3010.00000   25.11181          1       6507
End of Report 2

 6872s| 10000 |  3346 |  1044k| 101.7 |  1561M | 275 |  73k|  76k|  67k|  16k|  1 |  17k|  19 | 3.000000e+00 | 4.000000e+00 |  33.33%|  54.59%

SCIP Status        : solving was interrupted [time limit reached]
Solving Time (sec) : 7200.04
Solving Nodes      : 11005
Primal Bound       : +4.00000000000000e+00 (1 solutions)
Dual Bound         : +3.00000000000000e+00
Gap                : 33.33 %

SCIP> display statistics

SCIP Status        : solving was interrupted [time limit reached]
Total Time         :    7200.70
  solving          :    7200.04
  presolving       :       4.52 (included in solving)
  reading          :       0.66
  copying          :       2.69 (14 #copies) (minimal 0.18, maximal 0.21, average 0.19)
Original Problem   :
  Problem name     : chromaticindex1024-0
  Variables        : 73728 (73728 binary, 0 integer, 0 implicit integer, 0 continuous)
  Constraints      : 67583 initial, 67583 maximal
  Objective        : minimize, 4 non-zeros (abs.min = 1, abs.max = 1)
Presolved Problem  :
  Problem name     : t_chromaticindex1024-0
  Variables        : 73728 (73728 binary, 0 integer, 0 implicit integer, 0 continuous)
  Constraints      : 67583 initial, 76199 maximal
  Objective        : minimize, 4 non-zeros (abs.min = 1, abs.max = 1)
  Nonzeros         : 270324 constraint, 258020 clique table
Presolvers         :   ExecTime  SetupTime  Calls  FixedVars   AggrVars   ChgTypes  ChgBounds   AddHoles    DelCons    AddCons   ChgSides   ChgCoefs
  boundshift       :       0.00       0.00      0          0          0          0          0          0          0          0          0          0
  convertinttobin  :       0.00       0.00      0          0          0          0          0          0          0          0          0          0
  domcol           :       0.08       0.00      1          0          0          0          0          0          0          0          0          0
  dualagg          :       0.00       0.00      0          0          0          0          0          0          0          0          0          0
  dualcomp         :       0.00       0.00      0          0          0          0          0          0          0          0          0          0
  dualinfer        :       0.00       0.00      0          0          0          0          0          0          0          0          0          0
  dualsparsify     :       0.11       0.00      1          0          0          0          0          0          0          0          0          0
  gateextraction   :       0.00       0.00      0          0          0          0          0          0          0          0          0          0
  implics          :       0.00       0.00      2          0          0          0          0          0          0          0          0          0
  inttobinary      :       0.00       0.00      0          0          0          0          0          0          0          0          0          0
  qpkktref         :       0.00       0.00      0          0          0          0          0          0          0          0          0          0
  redvub           :       0.00       0.00      0          0          0          0          0          0          0          0          0          0
  sparsify         :       0.14       0.00      1          0          0          0          0          0          0          0          0          0
  stuffing         :       0.00       0.00      0          0          0          0          0          0          0          0          0          0
  trivial          :       0.00       0.00      2          0          0          0          0          0          0          0          0          0
  tworowbnd        :       0.13       0.00      1          0          0          0          0          0          0          0          0          0
  dualfix          :       0.00       0.00      2          0          0          0          0          0          0          0          0          0
  genvbounds       :       0.00       0.00      0          0          0          0          0          0          0          0          0          0
  probing          :       0.69       0.01      1          0          0          0          0          0          0          0          0          0
  pseudoobj        :       0.00       0.00      0          0          0          0          0          0          0          0          0          0
  symmetry         :       2.38       0.00      1          0          0          0          0          0          0          0          0          0
  vbounds          :       0.04       0.00      1          0          0          0          0          0          0          0          0          0
  knapsack         :       0.00       0.00      0          0          0          0          0          0          0          0          0          0
  setppc           :       0.26       0.01      3          0          0          0          0          0          0          0          0          0
  linear           :       0.46       0.06      2          0          0          0          0          0          0          0          0          0
  logicor          :       0.00       0.00      0          0          0          0          0          0          0          0          0          0
  benders          :       0.00       0.00      0          0          0          0          0          0          0          0          0          0
  components       :       0.06       0.00      1          0          0          0          0          0          0          0          0          0
  root node        :          -          -      -          9          -          -          9          -          -          -          -          -
Constraints        :     Number  MaxNumber  #Separate #Propagate    #EnfoLP    #EnfoRelax  #EnfoPS    #Check   #ResProp    Cutoffs    DomReds       Cuts    Applied      Conss   Children
  benderslp        :          0          0          0          0       7371          0          0       1087          0          0          0          0          0          0          0
  integral         :          0          0          0          0       7371          0          0       1087          0          0          0          0          0          0      14742
  knapsack         :          0+        52          0    1813906          0          0          0          0        185         72         48          0          0          0          0
  setppc           :      67583+     67587         12    2060232          0          0          0       1082     169499       5309     240470          0          0          0          0
  linear           :          0+        34          0    1799647          0          0          0          0        263         67         56          0          0          0          0
  logicor          :          0+      8533         12     303124          0          0          0          0      13181        444       9226          0          0          0          0
  benders          :          0          0          0          0          0          0          0          2          0          0          0          0          0          0          0
  countsols        :          0          0          0          0          0          0          0          2          0          0          0          0          0          0          0
  components       :          0          0          0          0          0          0          0          0          0          0          0          0          0          0          0
Constraint Timings :  TotalTime  SetupTime   Separate  Propagate     EnfoLP     EnfoPS     EnfoRelax   Check    ResProp    SB-Prop
  benderslp        :       0.01       0.00       0.00       0.00       0.01       0.00       0.00       0.00       0.00       0.00
  integral         :     179.55       0.00       0.00       0.00     179.52       0.00       0.00       0.03       0.00       0.00
  knapsack         :       1.23       0.00       0.00       1.23       0.00       0.00       0.00       0.00       0.00       0.00
  setppc           :      13.39       0.01       0.10      13.06       0.00       0.00       0.00       0.01       0.19       0.02
  linear           :       1.19       0.06       0.00       1.12       0.00       0.00       0.00       0.00       0.01       0.00
  logicor          :       1.78       0.00       0.00       1.76       0.00       0.00       0.00       0.00       0.02       0.00
  benders          :       0.00       0.00       0.00       0.00       0.00       0.00       0.00       0.00       0.00       0.00
  countsols        :       0.00       0.00       0.00       0.00       0.00       0.00       0.00       0.00       0.00       0.00
  components       :       0.38       0.00       0.00       0.38       0.00       0.00       0.00       0.00       0.00       0.00
Propagators        : #Propagate   #ResProp    Cutoffs    DomReds
  dualfix          :          2          0          0          0
  genvbounds       :          0          0          0          0
  nlobbt           :          0          0          0          0
  obbt             :          0          0          0          0
  probing          :          0          0          0          0
  pseudoobj        :      55224       5790          0          3
  redcost          :         17          0          0          0
  rootredcost      :          0          0          0          0
  symmetry         :      11002          0          0          7
  vbounds          :    2067576          0          0          0
Propagator Timings :  TotalTime  SetupTime   Presolve  Propagate    ResProp    SB-Prop
  dualfix          :       0.01       0.00       0.00       0.01       0.00       0.00
  genvbounds       :       1.00       0.00       0.00       1.00       0.00       0.00
  nlobbt           :       0.00       0.00       0.00       0.00       0.00       0.00
  obbt             :       0.00       0.00       0.00       0.00       0.00       0.00
  probing          :       0.70       0.01       0.69       0.00       0.00       0.00
  pseudoobj        :       2.43       0.00       0.00       2.03       0.40       0.00
  redcost          :       1.19       0.00       0.00       1.19       0.00       0.00
  rootredcost      :       1.39       0.00       0.00       1.39       0.00       0.00
  symmetry         :      41.42       0.00       2.38      39.04       0.00       0.00
  vbounds          :       3.79       0.00       0.04       3.75       0.00       0.00
Orbital fixing     :
  vars fixed to 0  :          7
  vars fixed to 1  :          0
Conflict Analysis  :       Time      Calls    Success    DomReds  Conflicts   Literals    Reconvs ReconvLits   Dualrays   Nonzeros   LP Iters   (pool size: [10000,10000])
  propagation      :       0.85       5839       5838          -      20385       11.4       1437       11.1          -          -          -
  infeasible LP    :       0.22         22         22          -         91       12.2          8       12.0         22       17.4          0
  bound exceed. LP :       1.62        108        108          -        419       10.2         33       13.0        108       14.8         30
  strong branching :       0.00          0          0          -          0        0.0          0        0.0          -          -          0
  pseudo solution  :       0.00          0          0          -          0        0.0          0        0.0          -          -          -
  applied globally :       0.75          -          -          0      17260        8.4          -          -        130          -          -
  applied locally  :          -          -          -          0          0        0.0          -          -          0          -          -
Separators         :   ExecTime  SetupTime      Calls    Cutoffs    DomReds       Cuts    Applied      Conss
  cut pool         :       1.70                  1540          -          -      82634          -          -    (maximal pool size: 9755)
  aggregation      :       2.71       0.00        131          0          0          0          0          0
  cgmip            :       0.00       0.00          0          0          0          0          0          0
  clique           :     862.21       0.00         12          0          0          0          0          0
  closecuts        :       0.00       0.00          0          0          0          0          0          0
  cmir             :       0.00       0.00          0          0          0          0          0          0
  convexproj       :       0.00       0.00          0          0          0          0          0          0
  disjunctive      :       0.00       0.00          0          0          0          0          0          0
  eccuts           :       0.00       0.00          0          0          0          0          0          0
  flowcover        :       0.00       0.00          0          0          0          0          0          0
  gauge            :       0.00       0.00          0          0          0          0          0          0
  gomory           :       5.43       0.00        129          0          0       7950       3203          0
  impliedbounds    :       0.32       0.00        131          0          0          0          0          0
  intobj           :       0.00       0.00          0          0          0          0          0          0
  mcf              :       0.05       0.00          1          0          0          0          0          0
  oddcycle         :       0.00       0.00          0          0          0          0          0          0
  rapidlearning    :       1.95       0.00          0          0          0          0          0          0
  strongcg         :       5.01       0.00        131          0          0       8380       1574          0
  zerohalf         :     304.21       0.00        131          0          0        354      13769          0
Pricers            :   ExecTime  SetupTime      Calls       Vars
  problem variables:       0.00          -          0          0
Branching Rules    :   ExecTime  SetupTime   BranchLP  BranchExt   BranchPS    Cutoffs    DomReds       Cuts      Conss   Children
  allfullstrong    :       0.00       0.00          0          0          0          0          0          0          0          0
  cloud            :       0.00       0.00          0          0          0          0          0          0          0          0
  distribution     :       0.00       0.00          0          0          0          0          0          0          0          0
  fullstrong       :       0.00       0.00          0          0          0          0          0          0          0          0
  inference        :       0.00       0.00          0          0          0          0          0          0          0          0
  leastinf         :       0.00       0.00          0          0          0          0          0          0          0          0
  lookahead        :       0.00       0.00          0          0          0          0          0          0          0          0
  mostinf          :       0.00       0.00          0          0          0          0          0          0          0          0
  multaggr         :       0.00       0.00          0          0          0          0          0          0          0          0
  nodereopt        :       0.00       0.00          0          0          0          0          0          0          0          0
  pscost           :       0.00       0.00          0          0          0          0          0          0          0          0
  random           :       0.00       0.00          0          0          0          0          0          0          0          0
  relpscost        :     179.48       0.00       7371          0          0          0          0          0          0      14742
  vanillafullstrong:       0.00       0.00          0          0          0          0          0          0          0          0
Primal Heuristics  :   ExecTime  SetupTime      Calls      Found       Best
  LP solutions     :       0.00          -          -          0          0
  relax solutions  :       0.00          -          -          0          0
  pseudo solutions :       0.00          -          -          0          0
  strong branching :       0.00          -          -          0          0
  actconsdiving    :       0.00       0.00          0          0          0
  adaptivediving   :      50.39       0.00         41          0          0
  alns             :       2.94       0.00          6          0          0
  bound            :       0.00       0.00          0          0          0
  clique           :       0.51       0.00          1          0          0
  coefdiving       :       0.00       0.00          0          0          0
  completesol      :       0.00       0.00          0          0          0
  conflictdiving   :     173.45       0.00        308          1          1
  crossover        :       0.03       0.00          0          0          0
  dins             :       0.00       0.00          0          0          0
  distributiondivin:      86.51       0.00         90          0          0
  dualval          :       0.00       0.00          0          0          0
  farkasdiving     :       0.00       0.00          0          0          0
  feaspump         :     165.02       0.00          2          0          0
  fixandinfer      :       0.00       0.00          0          0          0
  fracdiving       :     157.61       0.00        276          0          0
  gins             :       0.14       0.00          0          0          0
  guideddiving     :     162.70       0.00        248          0          0
  indicator        :       0.02       0.00          0          0          0
  intdiving        :       0.00       0.00          0          0          0
  intshifting      :       0.00       0.00          0          0          0
  linesearchdiving :     336.73       0.00        169          0          0
  localbranching   :       0.00       0.00          0          0          0
  locks            :       0.25       0.00          1          0          0
  lpface           :       1.44       0.00          0          0          0
  mpec             :       0.00       0.00          0          0          0
  multistart       :       0.00       0.00          0          0          0
  mutation         :       0.00       0.00          0          0          0
  nlpdiving        :       0.00       0.00          0          0          0
  objpscostdiving  :     788.26       0.00          7          0          0
  octane           :       0.00       0.00          0          0          0
  ofins            :       0.00       0.00          0          0          0
  oneopt           :       0.05       0.00          1          0          0
  padm             :       0.00       0.00          0          0          0
  proximity        :       0.00       0.00          0          0          0
  pscostdiving     :      68.01       0.00        151          0          0
  randrounding     :       8.20       0.00       1093          0          0
  rens             :       0.01       0.00          0          0          0
  reoptsols        :       0.00       0.00          0          0          0
  repair           :       0.00       0.00          0          0          0
  rins             :       8.98       0.00          9          0          0
  rootsoldiving    :       8.33       0.00          4          0          0
  rounding         :       7.53       0.00       1263          0          0
  shiftandpropagate:       0.44       0.00          1          0          0
  shifting         :      37.02       0.00        584          0          0
  simplerounding   :       0.03       0.00       8494          0          0
  subnlp           :       0.02       0.00          0          0          0
  trivial          :       0.09       0.00          2          0          0
  trivialnegation  :       0.00       0.00          0          0          0
  trustregion      :       0.00       0.00          0          0          0
  trysol           :       0.03       0.00          0          0          0
  twoopt           :       0.00       0.00          0          0          0
  undercover       :       0.00       0.00          0          0          0
  vbounds          :       6.81       0.00          1          0          0
  veclendiving     :     254.62       0.00        123          0          0
  zeroobj          :       0.00       0.00          0          0          0
  zirounding       :       5.53       0.00       1000          0          0
  other solutions  :          -          -          -          0          -
Diving (single)    :      Calls      Nodes   LP Iters Backtracks  Conflicts   MinDepth   MaxDepth   AvgDepth  RoundSols  NLeafSols  MinSolDpt  MaxSolDpt  AvgSolDpt
  actconsdiving    :          0          -          -          -          -          -          -          -          -          -          -          -          -
  coefdiving       :          0          -          -          -          -          -          -          -          -          -          -          -          -
  conflictdiving   :        308      45835      21090       1396       6477         20       3368      180.2          0          1       3368       3368     3368.0
  distributiondivin:         90      41259      32403        237       1052         24       1248      498.4          0          -          -          -          -
  farkasdiving     :          0          -          -          -          -          -          -          -          -          -          -          -          -
  fracdiving       :        276      51962       1161        759       3915         18       1673      221.6          0          -          -          -          -
  guideddiving     :        248      52546          0        748       3688         27        599      246.2          0          -          -          -          -
  linesearchdiving :        169     104737      28391        455       2544         42       5790      659.6          0          -          -          -          -
  pscostdiving     :        151      99635      32213        317       1839         57       2043      694.0          0          -          -          -          -
  veclendiving     :        123      62858      26278        439       2022         46       1120      549.9          0          -          -          -          -
Diving (adaptive)  :      Calls      Nodes   LP Iters Backtracks  Conflicts   MinDepth   MaxDepth   AvgDepth  RoundSols  NLeafSols  MinSolDpt  MaxSolDpt  AvgSolDpt
  actconsdiving    :          6        492          0         11         43         83        109       97.8          0          -          -          -          -
  coefdiving       :          7       5014          0         14         53        303        994      732.4          0          -          -          -          -
  conflictdiving   :          0          -          -          -          -          -          -          -          -          -          -          -          -
  distributiondivin:          0          -          -          -          -          -          -          -          -          -          -          -          -
  farkasdiving     :          0          -          -          -          -          -          -          -          -          -          -          -          -
  fracdiving       :          8       1821          0         32        160         48        342      242.5          0          -          -          -          -
  guideddiving     :          7       1735          0         24        109        121        336      261.7          0          -          -          -          -
  linesearchdiving :          7       6381       3223         20        112        585       1052      926.7          0          -          -          -          -
  pscostdiving     :          4       4769          0          6         31       1033       1416     1209.5          0          -          -          -          -
  veclendiving     :          2        700          0          6         33        103        630      366.5          0          -          -          -          -
Neighborhoods      :      Calls  SetupTime  SolveTime SolveNodes       Sols       Best       Exp3  EpsGreedy        UCB TgtFixRate  Opt  Inf Node Stal  Sol  Usr Othr Actv
  rens             :          1       0.01       0.00          0          0          0    0.00000   -1.00000    1.00000      0.900    0    0    0    0    0    0    1    1
  rins             :          1       0.35       0.11          0          0          0    0.00000   -1.00000    1.00000      0.700    0    1    0    0    0    0    0    1
  mutation         :          1       0.32       0.10          0          0          0    0.00000   -1.00000    1.00000      0.700    0    1    0    0    0    0    0    1
  localbranching   :          1       0.37       0.12          0          0          0    0.00000   -1.00000    1.00000      0.700    0    1    0    0    0    0    0    1
  crossover        :          0       0.00       0.00          0          0          0    0.00000   -1.00000    1.00000      0.900    0    0    0    0    0    0    0    1
  proximity        :          1       0.31       0.28          0          0          0    0.00000   -1.00000    1.00000      0.700    0    1    0    0    0    0    0    1
  zeroobjective    :          0       0.00       0.00          0          0          0    0.00000   -1.00000    1.00000      0.900    0    0    0    0    0    0    0    1
  dins             :          1       0.37       0.12          0          0          0    0.00000   -1.00000    1.00000      0.700    0    1    0    0    0    0    0    1
  trustregion      :          0       0.00       0.00          0          0          0    0.00000   -1.00000    1.00000      0.900    0    0    0    0    0    0    0    0
LP                 :       Time      Calls Iterations  Iter/call   Iter/sec  Time-0-It Calls-0-It    ItLimit
  primal LP        :     188.27        268          0       0.00       0.00     188.27        268
  dual LP          :    3113.51      12066     873615      72.43     280.59       0.28          5
  lex dual LP      :       0.00          0          0       0.00          -
  barrier LP       :       0.00          0          0       0.00          -       0.00          0
  resolve instable :       0.00          0          0       0.00          -
  diving/probing LP:    1107.37       2341     258292     110.33     233.25
  strong branching :      58.85         19      17817     937.74     302.75          -          -         31
    (at root node) :          -         19      17817     937.74          -
  conflict analysis:       0.21          3         30      10.00     142.86
B&B Tree           :
  number of runs   :          1
  nodes            :      11005 (7371 internal, 3634 leaves)
  feasible leaves  :          0
  infeas. leaves   :         75
  objective leaves :       3558
  nodes (total)    :      11005 (7371 internal, 3634 leaves)
  nodes left       :       3621
  max depth        :        275
  max depth (total):        275
  backtracks       :       2920 (26.5%)
  early backtracks :          0 (0.0%)
  nodes exc. ref.  :          0 (0.0%)
  delayed cutoffs  :        118
  repropagations   :       1667 (1809 domain reductions, 23 cutoffs)
  avg switch length:       4.59
  switching time   :     191.48
Estim. Tree Size   :      22244
Estimation Tree    : 14743 nodes (11122 visited, 7371 inner, 3751 leaves, 3621 open), weight: 0.6256 completed 0.5460
Estimations        :      estim      value      trend resolution     smooth
  wbe              :      11992          -          -          -          -
  tree-profile     : 98772853657077260415301713837681046192128          -          -          -          -
  gap              :      22244    0.75000    0.00000          4      22192
  tree-weight      :      22244    0.62555    0.00000          4      22192
  leaf-frequency   :     245157    0.33721    0.00001          4     203446
  ssg              :      22244    0.50000   -0.00000          4      22192
  open-nodes       :      22244 3621.00000    3.04951          4      22192
Root Node          :
  First LP value   : +3.00000000000000e+00
  First LP Iters   :          1 (0.21 Iter/sec)
  First LP Time    :       4.77
  Final Dual Bound : +3.00000000000000e+00
  Final Root Iters :      27791
  Root LP Estimate : +3.04171828387174e+00
Solution           :
  Solutions found  :          1 (1 improvements)
  First Solution   : +4.00000000000000e+00   (in run 1, after 1 nodes, 1155.54 seconds, depth 3368, found by <conflictdiving>)
  Gap First Sol.   :      33.33 %
  Gap Last Sol.    :      33.33 %
  Primal Bound     : +4.00000000000000e+00   (in run 1, after 1 nodes, 1155.54 seconds, depth 3368, found by <conflictdiving>)
  Dual Bound       : +3.00000000000000e+00
  Gap              :      33.33 %
Integrals          :      Total       Avg%
  primal-dual      :  266667.25      37.04
  primal-ref       :          -          - (not evaluated)
  dual-ref         :          -          - (not evaluated)

SCIP> checksol

check best solution
solution is feasible in original problem
Violation          :    absolute    relative
  bounds           : 0.00000e+00 0.00000e+00
  integrality      : 0.00000e+00           -
  LP rows          : 2.22045e-16 2.22045e-16
  constraints      : 2.22045e-16 2.22045e-16

SCIP> write sol /local/tmp/bzfhende-tmpdir/bzfhende.instancegroups_chromaticindexx.55_chromaticindex1024-0.scip.M620v2.periodic_report.sol

written solution information to file </local/tmp/bzfhende-tmpdir/bzfhende.instancegroups_chromaticindex.55_chromaticindex1024-0.scip.M620v2.periodic_report.sol>

SCIP> quit

Read MPS: 1
MIP has 73728 vars and 67583 constraints
Read SOL: 1
Objective value computed by solver: 4

Integrality tolerance: 1/10000
Linear tolerance: 1/10000
Objective tolerance: 1/10000

Check SOL: Integrality 1 Constraints 1 Objective 1
Maximum violations: Integrality 0 Constraints 0 Objective 0
@04 1583668779
-----------------------------
So 8. Mär 12:59:39 CET 2020
-----------------------------

=ready=
